COMMENT : drilling problem (Ludwig)
288 288 270 256 256 246 236 228 228 220 212 204 196 188 196 188 172 164 156 148 140 148 164 172 156 140 132 124 116 104 104 104 90 80 64 64 56 56 56 56 56 56 56 40 40 40 40 40 40 40 32 32 32 32 32 32 32 32 40 56 56 48 40 32 32 24 16 16 8 8 8 8 8 8 8 16 8 8 24 32 32 32 32 32 32 40 40 40 40 44 44 44 32 24 16 16 24 32 44 56 56 56 56 56 64 72 72 56 48 56 56 48 48 56 56 48 56 56 104 104 104 104 104 104 104 116 124 132 132 140 148 156 164 172 172 172 172 172 172 180 180 180 180 180 172 172 172 172 164 148 124 124 124 124 124 124 104 104 104 104 104 104 104 104 104 92 80 72 64 72 80 80 80 88 104 124 124 132 140 132 124 124 124 124 124 132 124 120 128 136 148 162 156 172 180 180 172 172 172 180 180 188 196 204 212 220 228 228 236 236 236 228 228 236 236 228 228 236 236 228 228 236 252 260 260 260 260 260 260 260 276 276 276 276 284 284 284 284 284 284 284 288 280 276 276 276 268 260 252 260 260 236 228 228 236 236 228 228 228 228 220 212 204 196 188 180 180 180 180 180 196 204 212 220 228 236 246 252 260 280
149 129 133 141 157 157 169 169 161 169 169 169 169 169 161 145 145 145 145 145 145 169 169 169 169 169 169 169 161 153 161 169 165 157 157 165 169 161 153 145 137 129 121 121 129 137 145 153 161 169 169 161 153 145 137 129 121 113 113 113 105 99 99 97 89 89 97 109 109 97 89 81 73 65 57 57 49 41 45 41 49 57 65 73 81 83 73 63 51 43 35 27 25 25 25 17 17 17 11 9 17 25 33 41 41 41 49 49 51 57 65 63 73 73 81 83 89 97 97 105 113 121 129 137 145 145 145 145 137 137 137 137 137 125 117 109 101 93 85 85 77 69 61 53 53 61 69 77 81 85 85 93 109 125 117 101 89 81 73 65 49 41 33 25 17 9 9 9 21 25 25 25 41 49 57 69 77 81 65 61 61 53 45 37 29 21 21 9 9 9 9 9 25 21 21 29 29 37 45 45 37 41 49 57 65 73 69 77 77 69 61 61 53 53 45 45 37 37 29 29 21 21 21 29 37 45 53 61 69 77 77 69 61 53 53 61 69 77 85 93 101 109 109 101 93 85 97 109 101 93 85 85 85 93 93 101 101 109 117 125 125 117 109 101 93 93 101 109 117 125 145 145 145 145 145 145 141 125 129 133
30641.6 30641.6 30641.6 30641.6 30620.4 29574.9 29443.7 29443.7 29443.7 29389.2 28856.3 28856.3 28856.3 28856.3 27661 27661 27661 27661 27012.9 27012.9 27012.9 27012.9 27012.9 27012.9 26888 26888 26802.8 26802.8 26760.3 26554.6 26278.4 26278.4 25894.6 25793.9 25793.9 25793.9 25296.5 25296.5 25296.5 25195.5 25045.9 25045.9 24970 24771.3 24771.3 24745.5 24677 24677 24379 24379 24149.5 24042.1 24042.1 24042.1 24042.1 24042.1 24042.1 23900.2 23900.2 23874.4 23874.4 23497.1 23439.9 23439.9 23439.9 23339 23339 23211.7 23211.7 23211.7 23211.7 23211.7 23211.7 22914.6 22914.6 22914.6 22905.1 22905.1 22751.7 22751.7 22751.7 22751.7 22751.7 22580 22465.7 22465.7 22465.7 22465.7 22138.4 22059.6 22059.6 22059.6 21985.5 21985.5 21709.8 21709.8 21709.8 21709.8 21709.8 21709.8 21442.6 21442.6 21442.6 21442.6 21442.6 21442.6 21442.6 21442.6 21442.6 21340.4 21340.4 21340.4 21233.8 21233.8 21214.5 21004.9 21004.9 20907.8 20907.8 20467.7 19908.1 19908.1 19908.1 19908.1 19466.9 19466.9 19466.9 19466.9 19466.9 19466.9 19466.9 19466.9 19466.9 19466.9 19238.9 19238.9 19238.9 19238.9 19238.9 19238.9 19238.9 19238.9 19196.4 19196.4 19106.4 19002 19002 18929.9 18929.9 18889.7 18791 18791 18791 18791 18791 18735.8 18566.6 18566.6 18566.6 18478.2 18478.2 18478.2 18207.3 18207.3 18207.3 18207.3 18207.3 18207.3 18207.3 18207.3 18207.3 18204.2 18194.5 18194.5 18194.5 18194.5 18194.5 18194.5 17685.2 17685.2 17685.2 17685.2 17685.2 17685.2 17685.2 17685.2 17685.2 17685.2 17685.2 17685.2 17685.2 17685.2 17685.2 17685.2 17625.7 17383.3 17265.9 17265.9 17265.9 17265.9 17265.9 17177.1 17177.1 16920.2 16920.2 16920.2 16920.2 16920.2 16920.2 16920.2 16920.2 16920.2 16920.2 16920.2 16920.2 16920.2 16851.4 16851.4 16851.4 16851.4 16851.4 16851.4 16825.1 16825.1 16825.1 16825.1 16825.1 16825.1 16791.6 16791.6 16791.6 16791.6 16791.6 16687.3 16687.3 16670.6 16446 16446 16446 16446 16446 16446 16265.7 16265.7 16265.7 16265.7 16265.7 16265.7 16265.7 16260.6 16260.6 16260.6 16256.5 16226.7 16226.7 16217.4 16217.4 15987.3 15987.3 15987.3 15987.3 15987.3 15987.3 15987.3 15987.3 15882 15741.5 15741.5 15698.6 15698.6 15698.6 15698.6 15169.1 15169.1 15169.1 15169.1 15169.1 15169.1 15169.1 15169.1 15169.1 15169.1 15169.1 15169.1 15169.1 15169.1 15169.1 15169.1 15169.1 15169.1 15169.1 15169.1 15169.1 15169.1 15159.2 15159.2 15159.2 15159.2 15159.2 15149.6 15149.6 15138.1 15138.1 15105.2 15084.2 15065.5 15048.1 15048.1 14977.7 14951.2 14951.2 14951.2 14951.2 14892 14892 14863.5 14859.6 14859.6 14640.1 14640.1 14640.1 14522.7 14522.7 14522.7 14522.7 14522.7 14522.7 14522.7 14522.7 14522.7 14522.7 14522.7 14522.7 14522.7 14522.7 14522.7 14478.2 14478.2 14478.2 14291.2 14291.2 14291.2 14291.2 14291.2 14291.2 14291.2 14291.2 14183.7 14183.7 14183.7 14183.7 14183.7 14183.7 14183.7 14183.7 14183.7 14183.7 14183.7 14183.7 14176.5 14110.6 14110.6 14110.6 14110.6 14110.6 14110.6 14110.6 14110.6 14110.6 14110.6 14110.6 14110.6 13990.2 13990.2 13990.2 13945.9 13945.9 13945.9 13945.9 13945.9 13945.9 13919.4 13906.1 13831.4 13831.4 13831.4 13831.4 13831.4 13831.4 13831.4 13831.4 13831.4 13831.4 13831.4 13831.4 13831.4 13700.3 13700.3 13700.3 13700.3 13700.3 13700.3 13700.3 13700.3 13700.3 13700.3 13700.3 13692.8 13689.1 13689.1 13689.1 13689.1 13639.7 13519.1 13519.1 13519.1 13519.1 13519.1 13519.1 13519.1 13519.1 13519.1 13519.1 13518.2 13518.2 13518.2 13518.2 13518.2 13518.2 13518.2 13518.2 13518.2 13518.2 13443.4 13443.4 13443.4 13443.4 13443.4 13443.4 13443.4 13443.4 13397.1 13397.1 13284.9 13284.9 13284.9 13284.9 13284.9 13284.9 13284.9 13089 13089 13089 13089 13089 13089 13089 13089 13089 13089 13089 13089 13089 13089 13089 13089 13089 13089 13024.2 13024.2 13024.2 13024.2 13024.2 13024.2 12958 12958 12958 12958 12958 12958 12958 12958 12958 12958 12958 12958 12877 12846.8 12818.4 12818.4 12818.4 12818.4 12818.4 12818.4 12818.4 12818.4 12818.4 12791.7 12777.8 12777.8 12777.8 12750.4 12689 12689 12689 12689 12689 12689 12689 12689 12543.3 12543.3 12543.3 12543.3 12543.3 12543.3 12543.3 12543.3 12520.8 12520.8 12520.8 12520.8 12438.2 12438.2 12438.2 12438.2 12438.2 12438.2 12438.2 12438.2 12438.2 12438.2 12438.2 12438.2 12431.3 12370.7 12370.7 12370.7 12370.7 12370.7 12370.7 12370.7 12370.7 12370.7 12370.7 12370.7 12370.7 12370.7 12370.7 12370.7 12370.7 12370.7 12370.7 12370.7 12370.7 12370.7 12357 12357 12357 12357 12183.5 12183.5 12183.5 12183.5 12183.5 12183.5 12183.5 12183.5 12183.5 12183.5 12183.5 12137.1 12137.1 12137.1 12137.1 12137.1 12137.1 12137.1 12137.1 12137.1 12137.1 12137.1 12137.1 12137.1 12137.1 12137.1 12137.1 12137.1 12137.1 12137.1 12137.1 12137.1 12137.1 12137.1 12137.1 12096.3 12090 12090 12090 12090 12007.5 12007.5 12007.5 12007.5 11990.4 11990.4 11990.4 11990.4 11990.4 11894 11840 11840 11840 11840 11840 11840 11840 11840 11840 11840 11840 11840 11840 11840 11840 11840 11840 11840 11840 11840 11823.8 11774.4 11774.4 11733.5 11733.5 11733.5 11733.5 11733.5 11733.5 11733.5 11733.5 11733.5 11733.5 11733.5 11733.5 11733.5 11733.5 11733.5 11733.5 11733.5 11733.5 11733.5 11733.5 11640.9 11640.9 11640.9 11640.9 11640.9 11640.9 11640.9 11640.9 11640.9 11640.9 11640.9 11582.6 11582.6 11582.6 11582.6 11581.5 11581.5 11581.5 11581.5 11581.5 11408.8 11408.8 11408.8 11408.8 11408.8 11408.8 11408.8 11408.8 11407.5 11407.5 11407.5 11407.5 11407.5 11407.5 11407.5 11407.5 11407.5 11407.5 11407.2 11370.7 11352.3 11289.6 11289.6 11139.3 11139.3 11139.3 11139.3 11139.3 11139.3 11139.3 11139.3 11139.3 11139.3 11139.3 11139.3 11139.3 11139.3 11139.3 11139.3 11139.3 11139.3 11139.3 11139.3 11139.3 11139.3 11139.3 11139.3 11139.3 11139.3 11139.3 11139.3 11139.3 11139.3 11139.3 11139.3 11139.3 11139.3 11139.3 11133.1 11133.1 11111.1 11111.1 11111.1 11051.1 11051.1 11051.1 11051.1 11051.1 11051.1 11051.1 11009.4 11009.4 11009.4 11009.4 11009.4 11009.4 11009.4 11009.4 11008.2 11008.2 10956 10956 10956 10956 10956 10956 10956 10956 10956 10949.8 10941.6 10941.6 10941.6 10941.6 10936.8 10936.8 10936.8 10936.8 10922.7 10922.7 10922.7 10922.7 10914 10858.7 10836.9 10830.5 10830.5 10830.5 10830.5 10830.5 10830.5 10778.3 10778.3 10778.3 10778.3 10745.2 10745.2 10745.2 10704.1 10704.1 10704.1 10704.1 10704.1 10652 10652 10652 10652 10652 10652 10652 10652 10652 10652 10561.1 10561.1 10561.1 10561.1 10561.1 10561.1 10543.2 10543.2 10543.2 10543.2 10543.2 10543.2 10528 10528 10520.5 10520.5 10509.9 10460.1 10460.1 10460.1 10460.1 10416.2 10416.2 10416.2 10416.2 10416.2 10416.2 10416.2 10394.9 10394.9 10394.9 10394.9 10394.9 10394.9 10394.9 10371.5 10369.4 10369.4 10308.1 10308.1 10308.1 10308.1 10308.1 10308.1 10276.3 10276.3 10276.3 10276.3 10276.3 10276.3 10276.3 10261.4 10188.2 10188.2 10188.2 10188.2 10188.2 10188.2 10188.2 10188.2 10173.8 10164.3 10134.7 10134.7 10134.7 10056.8 10056.8 10056.8 10056.8 10056.8 10014.9 10014.9 10014.9 10014.9 10014.9 10014.9 10014.9 10014.9 10014.9 9809.27 9809.27 9809.27 9809.27 9809.27 9809.27 9809.27 9809.27 9809.27 9809.27 9809.27 9809.27 9809.27 9809.27 9809.27 9809.27 9809.27 9800.66 9800.66 9800.66 9800.66 9800.66 9800.66 9800.66 9799.35 9799.35 9799.35 9754.68 9747.09 9747.09 9747.09 9747.09 9747.09 9747.09 9747.09 9747.09 9740.41 9740.41 9740.41 9740.41 9740.41 9740.41 9740.41 9740.41 9740.41 9740.41 9740.41 9716.06 9685.97 9685.97 9685.97 9685.97 9685.97 9685.97 9685.97 9685.97 9683.74 9683.74 9683.74 9661.18 9661.18 9661.18 9661.18 9643.49 9643.49 9643.49 9643.49 9643.49 9643.49 9643.49 9643.49 9643.49 9643.49 9643.49 9575.32 9575.32 9575.32 9575.32 9575.32 9575.32 9575.32 9575.32 9575.32 9575.32 9575.32 9575.32 9575.32 9571.52 9571.52 9571.52 9571.52 9571.52 9571.52 9510.16 9499.76 9499.76 9499.76 9499.76 9499.76 9499.76 9499.76 9499.76 9499.76 9499.76 9499.76 9445.51 9445.51 9445.51 9445.51 9445.51 9445.51 9445.51 9445.51 9445.51 9343.06 9343.06 9343.06 9343.06 9343.06 9343.06 9343.06 9343.06 9321.53 9321.53 9321.53 9321.53 9321.53 9321.53 9321.53 9321.53 9321.53 9321.53 9321.53 9321.53 9313.85 9313.85 9313.85 9313.85 9313.85 9313.85 9313.85 9306.55 9287.62 9287.62 9273.51 9236.64 9236.64 9187.51 9187.51 9187.51 9120.41 9120.41 9120.41 9120.41 9120.41 9120.41 9120.41 9119.36 9119.36 9119.36 9119.36 9119.36 9119.36 9119.36 9119.36 9075.55 9075.55 9075.55 9075.55 9075.55 9075.55 9075.55 9075.55 9075.55 9075.55 9075.55 9075.55 9075.55 9075.55 9075.55 9075.55 9054.88 9054.88 9054.88 9054.88 9054.88 9054.88 9054.88 9054.88 9011.84 8942.3 8942.3 8942.3 8942.3 8942.3 8942.3 8942.3 8942.3 8942.3 8942.3 8942.3 8942.3 8942.3 8942.3 8942.3 8942.3 8942.3 8942.3 8942.3 8942.3 8942.3 8942.3 8942.3 8942.3 8942.3 8942.3 8889.45 8889.45 8889.45 8889.45 8889.45 8889.45 8889.45 8889.45 8889.45 8889.45 8889.45 8859.38 8859.38 8859.38 8859.38 8859.38 8859.38 8859.38 8859.38 8859.38 8859.38 8859.38 8846.99 8846.99 8830.07 8830.07 8830.07 8830.07 8830.07 8830.07 8830.07 8830.07 8830.07 8824.13 8804.01 8804.01 8804.01 8804.01 8804.01 8804.01 8804.01 8804.01 8804.01 8804.01 8804.01 8804.01 8804.01 8804.01 8804.01 8804.01 8804.01 8804.01 8804.01 8804.01 8804.01 8804.01 8804.01 8804.01 8804.01 8799.48 8799.48 8799.48 8799.48 8785.14 8785.14 8779.67 8779.67 8760.96 8756.88 8719.34 8719.34 8719.34 8719.34 8719.34 8719.34 8719.34 8719.34 8719.34 8719.34 8719.34 8719.34 8667.86 8667.86 8667.86 8667.86 8667.86 8667.86 8667.86 8667.86 8667.86 8667.86 8667.86 8667.86 8667.86 8667.86 8667.86 8667.86 8651.1 8651.1 8651.1 8651.1 8651.1 8651.1 8651.1 8651.1 8612.69 8612.69 8612.69 8612.69 8612.69 8612.69 8612.69 8612.69 8612.69 8612.69 8612.69 8612.69 8612.69 8612.69 8612.69 8612.69 8612.69 8612.69 8597.03 8591.26 8591.26 8587.46 8587.46 8587.46 8579.68 8579.68 8579.68 8579.68 8579.68 8579.68 8579.68 8579.68 8571.18 8571.18 8571.18 8558.1 8558.1 8558.1 8558.1 8558.1 8558.1 8558.1 8558.1 8558.1 8553.79 8543.19 8543.19 8517.04 8517.04 8501.03 8501.03 8501.03 8501.03 8501.03 8501.03 8501.03 8501.03 8501.03 8501.03 8501.03 8485.19 8471.57 8471.57 8471.57 8471.57 8447.54 8447.54 8447.54 8447.54 8447.54 8447.54 8447.54 8447.54 8447.54 8447.54 8447.54 8444.84 8431.63 8431.63 8431.63 8431.63 8431.63 8431.63 8431.63 8412.35 8412.35 8412.35 8403.36 8403.36 8347.03 8347.03 8347.03 8347.03 8347.03 8347.03 8347.03 8347.03 8347.03 8347.03 8347.03 8347.03 8347.03 8345.66 8345.66 8345.66 8345.66 8345.66 8338.36 8338.36 8338.36 8338.36 8331.1 8331.1 8331.1 8331.1 8324.52 8324.52 8324.52 8324.52 8324.52 8288.01 8288.01 8288.01 8288.01 8288.01 8288.01 8288.01 8288.01 8288.01 8279.63 8254.55 8254.55 8254.55 8246.48 8246.48 8246.48 8246.48 8246.48 8246.48 8246.48 8246.48 8244.3 8244.3 8244.3 8244.3 8244.3 8244.3 8244.3 8216.61 8173.22 8141.34 8141.34 8134.11 8134.11 8134.11 8134.11 8134.11 8134.11 8134.11 8134.11 8134.11 8134.11 8134.11 8134.11 8134.11 8134.11 8133 8133 8133 8133 8133 8133 8101.13 8101.13 8101.13 8101.13 8101.13 8101.13 8101.13 8101.13 8038.14 8038.14 8038.14 8038.14 8038.14 8038.14 8038.14 8038.14 8038.14 8038.14 8038.14 8038.14 8038.14 8038.14 8038.14 8038.14 8038.14 8038.14 8038.14 8038.14 8035.21 8035.21 8035.21 8034.87 8034.87 8034.87 8034.87 8034.87 8034.87 8034.87 8024.84 8024.84 8022.37 8003.24 8003.24 8003.24 8003.24 8003.24 8003.24 8003.24 7995.55 7978.87 7978.87 7974.85 7974.85 7974.85 7974.85 7974.85 7970.86 7970.86 7966.76 7966.76 7966.76 7947.93 7947.93 7947.93 7947.93 7947.93 7947.93 7947.93 7947.93 7943.52 7927.43 7927.43 7927.43 7917.92 7917.92 7917.92 7915.54 7915.54 7915.54 7859.36 7859.36 7859.36 7859.36 7859.36 7859.36 7859.36 7859.36 7859.06 7859.06 7859.06 7859.06 7859.06 7851.44 7851.44 7851.44 7851.44 7829.19 7829.19 7829.19 7829.19 7829.19 7820.88 7820.88 7808.38 7808.38 7808.38 7808.38 7767.08 7767.08 7767.08 7767.08 7767.08 7767.08 7767.08 7767.08 7767.08 7767.08 7767.08 7767.08 7767.08 7756.35 7756.35 7756.35 7756.35 7756.35 7700.68 7700.68 7700.68 7686.6 7686.6 7686.6 7686.6 7684.15 7684.15 7684.15 7684.15 7684.15 7684.15 7684.15 7684.15 7684.15 7684.15 7684.15 7684.15 7684.15 7684.15 7684.15 7684.15 7684.15 7684.15 7684.15 7684.15 7684.15 7684.15 7684.15 7684.15 7684.15 7684.15 7684.15 7684.15 7666.86 7666.86 7666.86 7666.86 7664.34 7664.34 7664.34 7664.34 7664.34 7664.34 7664.34 7664.34 7664.34 7664.34 7664.34 7664.34 7648.52 7648.52 7648.52 7641.03 7641.03 7641.03 7615.31 7577.11 7566 7566 7566 7566 7566 7566 7566 7566 7566 7566 7566 7566 7566 7566 7561.33 7561.33 7561.33 7561.33 7561.33 7561.33 7561.33 7561.33 7561.33 7561.33 7494.51 7494.51 7494.51 7494.51 7492.24 7483.92 7483.92 7483.92 7483.92 7483.92 7483.92 7483.92 7465.45 7465.45 7465.45 7465.45 7465.45 7465.45 7465.45 7465.45 7465.45 7465.45 7456.36 7456.36 7456.36 7456.36 7456.36 7456.36 7423.86 7423.86 7423.86 7423.86 7423.86 7420.24 7420.24 7420.24 7416.22 7416.22 7416.22 7416.22 7406.18 7406.18 7406.18 7406.18 7406.18 7389.23 7361.1 7361.1 7361.1 7361.1 7361.1 7361.1 7352.58 7341.53 7341.53 7341.53 7341.53 7341.53 7332.67 7327.47 7327.47 7327.47 7327.47 7327.47 7327.47 7327.47 7318.31 7316.38 7313.72 7311.82 7299.6 7257.95 7257.95 7257.95 7257.95 7257.95 7257.95 7254.01 7254.01 7254.01 7254.01 7250.73 7250.73 7250.73 7250.73 7239.98 7239.98 7239.98 7222.1 7222.1 7222.1 7222.1 7222.1 7210.63 7210.63 7210.63 7209.38 7188.25 7188.25 7178.74 7178.74 7178.74 7178.74 7178.74 7178.74 7177.87 7157.58 7157.58 7157.58 7157.58 7157.58 7157.58 7157.58 7157.58 7157.58 7157.58 7157.58 7157.58 7157.58 7133.65 7133.65 7133.65 7133.65 7133.65 7133.36 7133.36 7133.36 7124.07 7114.21 7114.21 7114.21 7114.21 7111.86 7111.86 7111.86 7111.86 7111.74 7111.74 7111.74 7111.74 7106.67 7099.07 7099.07 7090.47 7090.47 7090.47 7083.67 7061.65 7061.65 7061.65 7061.65 7061.65 7061.65 7061.65 7061.65 7053.92 7053.92 7053.92 7053.92 7053.92 7034.76 7034.76 7009.75 6998.2 6998.2 6998.2 6998.2 6998.2 6998.2 6998.2 6998.2 6998.2 6998.2 6998.2 6998.2 6990.58 6990.58 6990.58 6990.58 6939.29 6939.29 6939.29 6939.29 6939.29 6939.29 6939.29 6939.29 6939.29 6939.29 6939.29 6939.29 6939.29 6939.29 6939.29 6939.29 6932.66 6932.66 6932.66 6932.66 6932.66 6932.66 6932.66 6932.66 6919.45 6919.45 6919.45 6902.46 6902.46 6902.46 6881.25 6860.55 6860.55 6860.55 6860.55 6860.55 6860.55 6860.55 6860.55 6860.55 6856.09 6856.09 6856.09 6856.09 6856.09 6846.51 6846.51 6846.51 6833.18 6833.18 6833.18 6830.62 6830.62 6823.08 6823.08 6823.08 6823.08 6823.08 6823.08 6823.08 6823.08 6801.51 6801.51 6801.51 6801.51 6799.74 6799.74 6799.74 6799.74 6799.74 6799.74 6799.74 6798.65 6762.58 6762.58 6762.58 6762.58 6762.58 6755.2 6755.2 6755.2 6755.2 6755.2 6755.2 6755.2 6755.2 6755.2 6755.2 6755.2 6755.2 6755.2 6755.2 6755.2 6754.14 6754.14 6749.68 6737.07 6737.07 6737.07 6736.37 6733.6 6732.61 6722.3 6722.3 6722.3 6722.3 6722.3 6722.3 6722.3 6715.62 6715.62 6715.62 6715.62 6715.62 6715.62 6704.05 6704.05 6700.89 6700.89 6700.89 6700.89 6700.89 6700.89 6692.95 6692.95 6689.57 6689.57 6689.57 6681.02 6680.7 6680.7 6680.7 6680.7 6680.7 6680.7 6680.7 6677.62 6668.04 6665.68 6665.68 6657.64 6657.64 6657.64 6655.79 6655.79 6655.79 6655.79 6655.79 6645.84 6645.84 6645.84 6640.97 6640.97 6640.97 6640.97 6640.97 6640.97 6640.97 6640.79 6640.79 6640.78 6640.78 6636.38 6626.8 6626.8 6626.8 6626.8 6626.8 6626.8 6626.8 6626.8 6626.8 6626.8 6626.8 6624.69 6624.69 6624.69 6624.69 6624.69 6624.69 6624.69 6613.06 6576.68 6576.68 6576.68 6576.68 6576.68 6576.68 6576.68 6576.68 6576.68 6576.68 6576.68 6576.68 6576.68 6576.68 6576.68 6576.68 6576.68 6576.68 6576.68 6576.68 6576.68 6576.68 6576.68 6576.68 6576.68 6576.68 6576.68 6576.68 6576.68 6576.68 6576.68 6576.68 6576.68 6576.68 6561.2 6561.2 6561.2 6561.2 6561.2 6561.2 6561.2 6561.2 6561.2 6548.3 6548.3 6548.3 6548.3 6548.3 6548.3 6548.3 6548.3 6548.3 6548.3
96 97 98 75 77 78 91 89 81 90 105 106 161 180 179 186 191 166 99 169 173 171 188 192 190 183 162 165 189 187 185 184 107 115 84 74 76 83 82 79 112 111 117 114 80 95 94 102 100 168 167 172 170 113 87 110 174 175 163 164 193 197 194 198 201 146 203 202 213 220 221 214 205 254 262 264 267 266 148 150 141 143 199 200 196 195 145 144 147 140 142 149 139 134 18 22 31 34 35 39 37 52 44 45 47 41 60 43 118 66 71 70 46 38 48 40 178 136 137 135 131 19 24 265 138 212 207 210 228 233 232 229 231 251 230 256 260 274 132 20 21 14 23 133 268 269 270 17 12 11 10 6 7 8 13 15 16 271 273 272 275 4 9 276 277 278 3 280 2 242 239 250 248 241 223 224 235 234 238 240 245 244 249 258 259 247 243 226 225 222 209 211 206 208 253 252 215 219 218 216 204 217 227 236 237 246 255 257 263 261 279 1 5 26 124 123 125 30 126 36 122 129 130 128 127 28 27 25 32 29 154 153 152 156 120 155 119 157 176 182 160 158 159 181 177 151 121 42 49 53 56 61 62 116 85 86 63 59 58 88 109 103 108 73 72 69 51 50 33 54 55 57 64 65 68 67 104 101 92 93
1 2 242 243 244 241 240 239 238 237 236 235 234 233 232 231 246 245 247 250 251 230 229 228 227 226 225 224 223 222 221 220 219 218 217 216 215 214 213 212 211 210 207 206 205 204 203 202 201 198 197 196 195 194 193 192 191 190 189 188 187 186 185 184 183 182 181 176 180 179 150 178 177 151 152 156 153 155 154 129 130 131 20 21 128 127 126 125 124 123 122 121 120 119 157 158 159 160 175 161 162 163 164 165 166 167 168 169 170 172 171 173 174 107 106 105 104 103 102 101 100 99 98 97 96 95 94 93 92 91 90 89 109 108 110 111 112 88 87 113 114 115 117 116 86 85 84 83 82 81 80 79 78 77 76 75 74 73 72 71 70 69 68 67 66 65 64 58 57 56 55 54 53 52 51 50 49 48 47 46 45 44 59 63 62 118 61 60 43 42 41 40 39 38 37 36 35 34 33 32 31 30 29 28 27 26 22 25 23 24 14 15 13 12 11 10 9 8 7 6 5 4 277 276 275 274 273 272 271 16 17 18 19 132 133 134 270 269 135 136 268 267 137 138 139 149 148 147 146 145 199 200 144 143 142 141 140 266 265 264 263 262 261 260 259 258 257 254 253 208 209 252 255 256 249 248 278 279 3 280
